c 1 ~  P0_k0 ~ 175
c 1 ~  P0_k1 ~ 176
c 1 ~  P0_k2 ~ 177
c 1 ~  P0_k3 ~ 178
c 2 ~  P1_k0 ~ 179
c 2 ~  P1_k1 ~ 180
c 2 ~  P1_k2 ~ 181
c 2 ~  P1_k3 ~ 182
c 3 ~  P2_k0 ~ 183
c 3 ~  P2_k1 ~ 184
c 3 ~  P2_k2 ~ 185
c 3 ~  P2_k3 ~ 186
c 4 ~  P3_k0 ~ 187
c 4 ~  P3_k1 ~ 188
c 4 ~  P3_k2 ~ 189
c 4 ~  P3_k3 ~ 190
c 5 ~  P4_k0 ~ 191
c 5 ~  P4_k1 ~ 192
c 5 ~  P4_k2 ~ 193
c 5 ~  P4_k3 ~ 194
c 6 ~  P5_k0 ~ 195
c 6 ~  P5_k1 ~ 196
c 6 ~  P5_k2 ~ 197
c 6 ~  P5_k3 ~ 198
p cnf 198 122
175 176 177 178 0
179 180 181 182 0
183 184 185 186 0
187 188 189 190 0
191 192 193 194 0
195 196 197 198 0
-175 -176 0
-175 -177 0
-175 -178 0
-176 -177 0
-176 -178 0
-177 -178 0
-179 -180 0
-179 -181 0
-179 -182 0
-180 -181 0
-180 -182 0
-181 -182 0
-183 -184 0
-183 -185 0
-183 -186 0
-184 -185 0
-184 -186 0
-185 -186 0
-187 -188 0
-187 -189 0
-187 -190 0
-188 -189 0
-188 -190 0
-189 -190 0
-191 -192 0
-191 -193 0
-191 -194 0
-192 -193 0
-192 -194 0
-193 -194 0
-195 -196 0
-195 -197 0
-195 -198 0
-196 -197 0
-196 -198 0
-197 -198 0
-175 -191 0
-176 -192 0
-177 -193 0
-178 -194 0
-175 -183 0
-176 -184 0
-177 -185 0
-178 -186 0
-175 -179 0
-176 -180 0
-177 -181 0
-178 -182 0
-179 -191 0
-180 -192 0
-181 -193 0
-182 -194 0
-179 -183 0
-180 -184 0
-181 -185 0
-182 -186 0
-179 -175 0
-180 -176 0
-181 -177 0
-182 -178 0
-183 -191 0
-184 -192 0
-185 -193 0
-186 -194 0
-183 -179 0
-184 -180 0
-185 -181 0
-186 -182 0
-183 -175 0
-184 -176 0
-185 -177 0
-186 -178 0
-183 -187 0
-184 -188 0
-185 -189 0
-186 -190 0
-187 -191 0
-188 -192 0
-189 -193 0
-190 -194 0
-187 -195 0
-188 -196 0
-189 -197 0
-190 -198 0
-187 -183 0
-188 -184 0
-189 -185 0
-190 -186 0
-191 -175 0
-192 -176 0
-193 -177 0
-194 -178 0
-191 -187 0
-192 -188 0
-193 -189 0
-194 -190 0
-191 -195 0
-192 -196 0
-193 -197 0
-194 -198 0
-191 -179 0
-192 -180 0
-193 -181 0
-194 -182 0
-191 -183 0
-192 -184 0
-193 -185 0
-194 -186 0
-195 -187 0
-196 -188 0
-197 -189 0
-198 -190 0
-195 -191 0
-196 -192 0
-197 -193 0
-198 -194 0
